(set-logic QF_S)
(declare-fun _var_0xINPUT_147374_() String)
(declare-fun __woorpje_diseq_pref0_() String)
(declare-fun __woorpje_diseq_suf_l0_() String)
(declare-fun __woorpje_diseq_suf_r0_() String)
(declare-fun __woorpje_diseq_pref1_() String)
(declare-fun __woorpje_diseq_suf_l1_() String)
(declare-fun __woorpje_diseq_suf_r1_() String)
(declare-fun __woorpje_diseq_pref2_() String)
(declare-fun __woorpje_diseq_suf_l2_() String)
(declare-fun __woorpje_diseq_suf_r2_() String)
(declare-fun __woorpje_diseq_pref3_() String)
(declare-fun __woorpje_diseq_suf_l3_() String)
(declare-fun __woorpje_diseq_suf_r3_() String)
(declare-fun __woorpje_diseq_pref4_() String)
(declare-fun __woorpje_diseq_suf_l4_() String)
(declare-fun __woorpje_diseq_suf_r4_() String)
(assert (=(str.++ _var_0xINPUT_147374_  "")(str.++ __woorpje_diseq_pref2_  "Z" __woorpje_diseq_suf_l2_  "")) )
(assert (=(str.++  "qXdHDo7IZR" "")(str.++ __woorpje_diseq_pref2_  "D" __woorpje_diseq_suf_r2_  "")) )
(assert (=(str.++ _var_0xINPUT_147374_  "")(str.++ __woorpje_diseq_pref2_  "Z" __woorpje_diseq_suf_l2_  "")) )
(assert (=(str.++  "qXdHDo7IZR" "")(str.++ __woorpje_diseq_pref2_  "D" __woorpje_diseq_suf_r2_  "")) )
(assert  (<= (* (str.len _var_0xINPUT_147374_)(- 1)) (- 11)) )
(assert  (<= (* (str.len _var_0xINPUT_147374_)(- 1)) (- 1)) )
(assert  (<= (* (str.len _var_0xINPUT_147374_)(- 1)) (- 11)) )
(assert  (<= (* (str.len _var_0xINPUT_147374_)(- 1)) (- 1)) )
(assert  (<= (* (str.len _var_0xINPUT_147374_)(- 1)) (- 1)) )
(assert  (<= (* (str.len _var_0xINPUT_147374_)(- 1)) (- 9)) )
(assert  (<= (* (str.len _var_0xINPUT_147374_)(- 1)) (- 1)) )
(assert  (<= (* (str.len _var_0xINPUT_147374_)(- 1)) (- 9)) )
(check-sat)
